(set-logic QF_UF)
(declare-fun A0 () Bool)
(declare-fun A1 () Bool)
(declare-fun A2 () Bool)
(declare-fun A3 () Bool)
(declare-fun A4 () Bool)
(declare-fun A5 () Bool)
(declare-fun A6 () Bool)
(declare-fun A7 () Bool)
(declare-fun A8 () Bool)
(declare-fun A9 () Bool)
(declare-fun A10 () Bool)
(declare-fun A11 () Bool)
(declare-fun A12 () Bool)
(declare-fun A13 () Bool)
(declare-fun A14 () Bool)
(declare-fun A15 () Bool)
(declare-fun A16 () Bool)
(declare-fun A17 () Bool)
(declare-fun A18 () Bool)
(declare-fun A19 () Bool)
(declare-fun A20 () Bool)
(declare-fun A21 () Bool)
(declare-fun A22 () Bool)
(declare-fun A23 () Bool)
(declare-fun A24 () Bool)
(assert (let ((.def_0 (not A11))) (let ((.def_1 (or A13 .def_0))) (let ((.def_2 (not .def_1))) (let ((.def_3 (not A4))) (let ((.def_4 (not A23))) (let ((.def_5 (or .def_4 .def_3))) (let ((.def_6 (not .def_5))) (let ((.def_7 (or .def_6 .def_2))) (let ((.def_8 (not .def_7))) (let ((.def_9 (not A10))) (let ((.def_10 (not A20))) (let ((.def_11 (or .def_10 .def_9))) (let ((.def_12 (not .def_11))) (let ((.def_13 (not A17))) (let ((.def_14 (not A18))) (let ((.def_15 (and .def_14 .def_13))) (let ((.def_16 (not .def_15))) (let ((.def_17 (or .def_16 .def_12))) (let ((.def_18 (not .def_17))) (let ((.def_19 (and .def_18 .def_8))) (let ((.def_20 (= A10 .def_10))) (let ((.def_21 (not .def_20))) (let ((.def_22 (and A2 A10))) (let ((.def_23 (or .def_22 .def_21))) (let ((.def_24 (not .def_23))) (let ((.def_25 (not A9))) (let ((.def_26 (or .def_25 A14))) (let ((.def_27 (not .def_26))) (let ((.def_28 (or A4 A16))) (let ((.def_29 (not .def_28))) (let ((.def_30 (= .def_29 .def_27))) (let ((.def_31 (or .def_30 .def_24))) (let ((.def_32 (not .def_31))) (let ((.def_33 (or .def_32 .def_19))) (let ((.def_34 (not .def_33))) (let ((.def_35 (and .def_10 A4))) (let ((.def_36 (not A6))) (let ((.def_37 (= .def_36 A4))) (let ((.def_38 (not .def_37))) (let ((.def_39 (and .def_38 .def_35))) (let ((.def_40 (not A8))) (let ((.def_41 (and A23 .def_40))) (let ((.def_42 (not .def_41))) (let ((.def_43 (and A13 A0))) (let ((.def_44 (or .def_43 .def_42))) (let ((.def_45 (not .def_44))) (let ((.def_46 (or .def_45 .def_39))) (let ((.def_47 (and A15 A9))) (let ((.def_48 (not .def_47))) (let ((.def_49 (or .def_40 A16))) (let ((.def_50 (and .def_49 .def_48))) (let ((.def_51 (not A13))) (let ((.def_52 (= A23 .def_51))) (let ((.def_53 (not .def_52))) (let ((.def_54 (and A18 .def_4))) (let ((.def_55 (not .def_54))) (let ((.def_56 (or .def_55 .def_53))) (let ((.def_57 (and .def_56 .def_50))) (let ((.def_58 (and .def_57 .def_46))) (let ((.def_59 (not .def_58))) (let ((.def_60 (and .def_59 .def_34))) (let ((.def_61 (not A22))) (let ((.def_62 (= .def_61 A14))) (let ((.def_63 (not A5))) (let ((.def_64 (or A1 .def_63))) (let ((.def_65 (= .def_64 .def_62))) (let ((.def_66 (not A24))) (let ((.def_67 (or A17 .def_66))) (let ((.def_68 (not A19))) (let ((.def_69 (or A6 .def_68))) (let ((.def_70 (or .def_69 .def_67))) (let ((.def_71 (not .def_70))) (let ((.def_72 (and .def_71 .def_65))) (let ((.def_73 (not .def_72))) (let ((.def_74 (or A10 .def_13))) (let ((.def_75 (not A0))) (let ((.def_76 (= .def_75 A23))) (let ((.def_77 (or .def_76 .def_74))) (let ((.def_78 (not .def_77))) (let ((.def_79 (not A21))) (let ((.def_80 (or .def_79 A11))) (let ((.def_81 (not A12))) (let ((.def_82 (or .def_63 .def_81))) (let ((.def_83 (not .def_82))) (let ((.def_84 (= .def_83 .def_80))) (let ((.def_85 (and .def_84 .def_78))) (let ((.def_86 (not .def_85))) (let ((.def_87 (or .def_86 .def_73))) (let ((.def_88 (and A18 .def_10))) (let ((.def_89 (not .def_88))) (let ((.def_90 (or .def_25 A18))) (let ((.def_91 (or .def_90 .def_89))) (let ((.def_92 (not .def_91))) (let ((.def_93 (and A18 A14))) (let ((.def_94 (not A15))) (let ((.def_95 (and A7 .def_94))) (let ((.def_96 (not .def_95))) (let ((.def_97 (and .def_96 .def_93))) (let ((.def_98 (or .def_97 .def_92))) (let ((.def_99 (not .def_98))) (let ((.def_100 (or A21 A19))) (let ((.def_101 (not A3))) (let ((.def_102 (or A24 .def_101))) (let ((.def_103 (and .def_102 .def_100))) (let ((.def_104 (and A15 A11))) (let ((.def_105 (not .def_104))) (let ((.def_106 (and .def_66 A21))) (let ((.def_107 (not .def_106))) (let ((.def_108 (= .def_107 .def_105))) (let ((.def_109 (or .def_108 .def_103))) (let ((.def_110 (and .def_109 .def_99))) (let ((.def_111 (or .def_110 .def_87))) (let ((.def_112 (not .def_111))) (let ((.def_113 (or .def_112 .def_60))) (let ((.def_114 (not .def_113))) .def_114))))))))))))))))))))))))))))))))))))))))))))))))))))))))))))))))))))))))))))))))))))))))))))))))))))))))))))))))))))
(check-sat)
